NAME : compression
TYPE : TSP
DIMENSION : 50
EDGE_WEIGHT_TYPE : EUC_2D
NODE_COORD_SECTION
1 618508 702894
2 130508 625103
3 903751 53165
4 907112 556097
5 218599 487563
6 98503 205453
7 129443 481480
8 705028 295904
9 390919 240946
10 714722 266958
11 213782 471511
12 348527 305544
13 625665 275212
14 686620 395049
15 284091 877748
16 787956 253506
17 931052 547456
18 303932 909881
19 101383 528281
20 836766 820900
21 73074 459216
22 140357 608267
23 282370 713124
24 93906 512934
25 834129 115608
26 779823 527920
27 802047 150417
28 160922 484083
29 931956 729011
30 303798 962802
31 831651 523913
32 904569 60894
33 649597 435992
34 723266 723299
35 127010 548757
36 164579 837473
37 766685 526222
38 473629 542457
39 127835 521316
40 909222 736639
41 850182 875622
42 852893 107714
43 844132 270382
44 58132 439515
45 98615 522600
46 127598 537721
47 781089 528083
48 806317 148035
49 623369 268449
50 170216 809685
EOF
